\ENCODING=ISO-8859-1
\Problem name: ilog.cplex

Minimize
 obj: 0.002 x0,3,0 + 0.002 x2,1,0 + 0.002 x1,2,0 + 0.002 x3,0,0
      + 1000000 z_0,0,0 + 1000000 z_0,0,1 + 1000000 z_0,0,2 + 1000000 z_0,0,3
Subject To
 c1:  x0,3,0 - x3,0,0  = 30
 c3:  - x2,1,0 + x1,2,0  = 0
 c5:  x2,1,0 - x1,2,0  = 0
 c7:  - x0,3,0 + x3,0,0  = -30
 c9:  x0,3,0 - 50 z_0,0,0 <= 0
 c11: x2,1,0 - 50 z_0,0,1 <= 0
 c13: x1,2,0 - 50 z_0,0,2 <= 0
 c15: x3,0,0 - 50 z_0,0,3 <= 0
 c16: q0,0  = 1
 c17: q0,1  = 1
Bounds
 0 <= q0,0 <= 1
 0 <= q0,1 <= 1
End
